SPARKNaCl/why3-z3/sparknacl-utils.ads_25_21_postcondition_1.smt2
;; produced by z3_gnatprove.drv ;;
(set-info :smt-lib-version 2.5)
(set-info :source |VC generated by SPARK 2014|)
(set-info :category industrial)
(set-info :status unknown)
;;; generated by SMT-LIB2 driver
;;; SMT-LIB2 driver: bit-vectors, common part
;;; SMT-LIB2: integer arithmetic
(declare-datatypes ()
  ((int__ref (int__refqtmk (int__content Int)))))

(declare-datatypes ()
  ((t__ref (t__refqtmk (t__content (_ BitVec 32))))))

(declare-sort byte 0)

(declare-datatypes ()
  ((byte__init_wrapper
   (byte__init_wrapperqtmk (rec__value byte)(us_attr__init Bool)))))

(declare-sort map1 0)

(declare-datatypes ()
  ((map__ref (map__refqtmk (map__content map1)))))

;; "has_bounds"
(declare-fun has_bounds (map1
  Int
  Int) Bool)

;; "get"
(declare-fun get (map1
  Int) byte__init_wrapper)

;; "set"
(declare-fun set (map1
  Int
  byte__init_wrapper) map1)

;; "set_eq"
(assert
  (forall ((a map1) (i Int) (v byte__init_wrapper))
    (! (= (get (set a i v) i) v) :pattern ((set a i v)) )))

;; "set_neq"
(assert
  (forall ((a map1) (i Int) (v byte__init_wrapper))
    (! (forall ((j Int))
         (! (=> (not (= i j)) (= (get (set a i v) j) (get a j))) :pattern (
         (get
           a
           j)) :pattern ((get (set a i v) j)) )) :pattern ((set a i v)) )))

;; "set_has_bounds"
(assert
  (forall ((a map1) (i Int) (f Int) (l Int) (v byte__init_wrapper))
    (! (=>
         (and (<= f i) (<= i l))
         (=> (has_bounds a f l) (has_bounds (set a i v) f l))) :pattern (
    (has_bounds
      (set a i v)
      f
      l)) )))

;; "slice"
(declare-fun slice (map1
  Int
  Int) map1)

;; "slice_eq"
(assert
  (forall ((a map1) (f Int) (l Int))
    (! (=> (has_bounds a f l) (= (slice a f l) a)) :pattern ((slice a f l)
    (has_bounds a f l)) )))

;; "slice_slice"
(assert
  (forall ((a map1) (f1 Int) (l1 Int) (f2 Int) (l2 Int))
    (! (=>
         (and (<= f1 f2) (<= l2 l1))
         (= (slice (slice a f1 l1) f2 l2) (slice a f2 l2))) :pattern (
    (slice
      (slice a f1 l1)
      f2
      l2)) )))

;; "slice_def"
(assert
  (forall ((a map1) (f Int) (l Int))
    (! (forall ((i Int))
         (! (=> (and (<= f i) (<= i l)) (= (get (slice a f l) i) (get a i))) :pattern (
         (get
           (slice a f l)
           i)) :pattern ((get a i)) )) :pattern ((slice a f l)) )))

;; "slice_has_bounds"
(assert
  (forall ((a map1) (f Int) (l Int))
    (! (has_bounds (slice a f l) f l) :pattern ((has_bounds
                                                  (slice a f l)
                                                  f
                                                  l)) )))

(declare-const input (_ BitVec 32))

;; "to_rep"
(declare-fun to_rep (byte) (_ BitVec 8))

;; "of_rep"
(declare-fun of_rep ((_ BitVec 8)) byte)

;; "inversion_axiom"
(assert
  (forall ((x byte)) (! (= (of_rep (to_rep x)) x) :pattern ((to_rep x)) )))

;; "range_axiom"
(assert true)

;; "coerce_axiom"
(assert
  (forall ((x (_ BitVec 8)))
    (! (= (to_rep (of_rep x)) x) :pattern ((to_rep (of_rep x))) )))

;; "__is_initialized"
(define-fun us_is_initialized ((temp___expr_349 map1)) Bool
  (forall ((temp___350 Int))
    (=>
      (and (<= 0 temp___350) (<= temp___350 3))
      (= (us_attr__init (get temp___expr_349 temp___350)) true))))

(declare-sort tinteger_32B 0)

;; "tinteger_32B'int"
(declare-fun tinteger_32Bqtint (tinteger_32B) Int)

;; "tinteger_32B'axiom"
(assert
  (forall ((i tinteger_32B))
    (and
      (<= (- 2147483648) (tinteger_32Bqtint i))
      (<= (tinteger_32Bqtint i) 2147483647))))

;; "in_range"
(define-fun in_range ((x Int)) Bool
  (and (<= (- 2147483648) x) (<= x 2147483647)))

;; "to_rep"
(define-fun to_rep1 ((x tinteger_32B)) Int
  (tinteger_32Bqtint x))

;; "of_rep"
(declare-fun of_rep1 (Int) tinteger_32B)

;; "inversion_axiom"
(assert
  (forall ((x tinteger_32B))
    (! (= (of_rep1 (to_rep1 x)) x) :pattern ((to_rep1 x)) )))

;; "range_axiom"
(assert
  (forall ((x tinteger_32B))
    (! (in_range (to_rep1 x)) :pattern ((to_rep1 x)) )))

;; "coerce_axiom"
(assert
  (forall ((x Int))
    (! (=> (in_range x) (= (to_rep1 (of_rep1 x)) x)) :pattern ((to_rep1
                                                                 (of_rep1 x))) )))

(declare-datatypes ()
  ((t (tqtmk (rec__first tinteger_32B)(rec__last tinteger_32B)))))

;; "mk"
(declare-fun mk (Int
  Int) t)

;; "mk_def"
(assert
  (forall ((f Int) (l Int))
    (! (=>
         (in_range f)
         (=>
           (in_range l)
           (and
             (= (to_rep1 (rec__first (mk f l))) f)
             (= (to_rep1 (rec__last (mk f l))) l)))) :pattern ((mk f l)) )))

(declare-datatypes ()
  ((us_t (us_tqtmk (elts map1)(rt t)))))

;; "of_array"
(define-fun of_array ((a map1) (f Int) (l Int)) us_t
  (us_tqtmk a (mk f l)))

(declare-const output map1)

;; "output'unused"
(define-fun outputqtunused () map__ref
  (map__refqtmk output))

;; "Assume"
(assert (has_bounds output 0 3))

;; "Assume"
(assert true)

(declare-const x (_ BitVec 32))

;; "x'unused"
(define-fun xqtunused () t__ref
  (t__refqtmk x))

;; "H"
(assert (= x input))

;; "Assume"
(assert true)

;; "t__content'result'unused"
(define-fun t__contentqtresultqtunused () (_ BitVec 32)
  x)

;; "o"
(define-fun o () (_ BitVec 32)
  (bvand x #x000000FF))

;; "bw_and'result'unused"
(define-fun bw_andqtresultqtunused () (_ BitVec 32)
  o)

;; "o"
(define-fun o1 () (_ BitVec 32)
  ((_ zero_extend 24) #xFF))

;; "toBig'result'unused"
(define-fun toBigqtresultqtunused () (_ BitVec 32)
  o1)

;; "o"
(define-fun o2 () (_ BitVec 32)
  ((_ zero_extend 24) #x00))

;; "toBig'result'unused"
(define-fun toBigqtresultqtunused1 () (_ BitVec 32)
  o2)

;; "range_check_'result'unused"
(define-fun range_check_qtresultqtunused () (_ BitVec 32)
  o)

;; "o"
(define-fun o3 () (_ BitVec 8)
  ((_ extract 7 0) o))

;; "toSmall'result'unused"
(define-fun toSmallqtresultqtunused () (_ BitVec 8)
  o3)

(declare-const o4 byte)

;; "Ensures"
(assert (= (to_rep o4) o3))

;; "of_rep'result'unused"
(define-fun of_repqtresultqtunused () byte
  o4)

;; "o"
(define-fun o5 () byte__init_wrapper
  (byte__init_wrapperqtmk o4 true))

;; "to_wrapper'result'unused"
(define-fun to_wrapperqtresultqtunused () byte__init_wrapper
  o5)

;; "map__content'result'unused"
(define-fun map__contentqtresultqtunused () map1
  output)

;; "o"
(define-fun o6 () map1
  (set output 3 o5))

;; "set'result'unused"
(define-fun setqtresultqtunused () map1
  o6)

(declare-const output1 map1)

;; "output'unused"
(define-fun outputqtunused1 () map__ref
  (map__refqtmk output1))

;; "H"
(assert (= output1 o6))

;; "Assert"
(assert (= (us_attr__init (get output1 3)) true))

(declare-const output2 map1)

;; "output'unused"
(define-fun outputqtunused2 () map__ref
  (map__refqtmk output2))

(declare-const i Int)

(declare-const iqtunused int__ref)

;; "H"
(assert (= iqtunused (int__refqtmk i)))

;; "H"
(assert (= i 2))

(declare-const int__contentqtresultqtunused Int)

;; "H"
(assert (= int__contentqtresultqtunused i))

(declare-const o7 Bool)

;; "H"
(assert (= o7 (ite (<= i 2) true false)))

(declare-const infix_lseqqtresultqtunused Bool)

;; "H"
(assert (= infix_lseqqtresultqtunused o7))

(declare-const int__contentqtresultqtunused1 Int)

;; "H"
(assert (= int__contentqtresultqtunused1 i))

(declare-const o8 Bool)

;; "H"
(assert (= o8 (ite (<= 0 i) true false)))

(declare-const infix_lseqqtresultqtunused1 Bool)

;; "H"
(assert (= infix_lseqqtresultqtunused1 o8))

(declare-const o9 Bool)

;; "H"
(assert (= o9 (and o8 o7)))

(declare-const andbqtresultqtunused Bool)

;; "H"
(assert (= andbqtresultqtunused o9))

(declare-const temp___loop_entry_696qtunused map1)

(declare-const map__contentqtresultqtunused1 map1)

(declare-const temp___loop_entry_694qtunused (_ BitVec 32))

(declare-const t__contentqtresultqtunused1 (_ BitVec 32))

(declare-const o10 (_ BitVec 32))

(declare-const of_intqtresultqtunused (_ BitVec 32))

(declare-const t__contentqtresultqtunused2 (_ BitVec 32))

(declare-const o11 (_ BitVec 32))

(declare-const lsr_bvqtresultqtunused (_ BitVec 32))

(declare-const x1 (_ BitVec 32))

(declare-const xqtunused1 t__ref)

(declare-const t__contentqtresultqtunused3 (_ BitVec 32))

(declare-const o12 (_ BitVec 32))

(declare-const bw_andqtresultqtunused1 (_ BitVec 32))

(declare-const toBigqtresultqtunused2 (_ BitVec 32))

(declare-const toBigqtresultqtunused3 (_ BitVec 32))

(declare-const range_check_qtresultqtunused1 (_ BitVec 32))

(declare-const o13 (_ BitVec 8))

(declare-const toSmallqtresultqtunused1 (_ BitVec 8))

(declare-const o14 byte)

(declare-const of_repqtresultqtunused1 byte)

(declare-const o15 byte__init_wrapper)

(declare-const to_wrapperqtresultqtunused1 byte__init_wrapper)

(declare-const int__contentqtresultqtunused2 Int)

(declare-const map__contentqtresultqtunused2 map1)

(declare-const o16 map1)

(declare-const setqtresultqtunused1 map1)

(declare-const output3 map1)

(declare-const outputqtunused3 map__ref)

(declare-const int__contentqtresultqtunused3 Int)

(declare-const map__contentqtresultqtunused3 map1)

(declare-const o17 map1)

(declare-const sliceqtresultqtunused map1)

(declare-const temp___703 us_t)

(declare-const of_arrayqtresultqtunused us_t)

(declare-const usfqtunused Bool)

(declare-const anyqtresultqtunused Bool)

(declare-const i1 Int)

(declare-const iqtunused1 int__ref)

(declare-const int__contentqtresultqtunused4 Int)

(declare-const infix_eqqtresultqtunused Bool)

;; "H"
(assert
  (ite (= o9 true)
    (and
      (= temp___loop_entry_696qtunused output1)
      (and
        (= map__contentqtresultqtunused1 output1)
        (and
          (= temp___loop_entry_694qtunused x)
          (and
            (= t__contentqtresultqtunused1 x)
            (and
              (= o10 ((_ int2bv 32) 8))
              (and
                (= of_intqtresultqtunused o10)
                (and
                  (= t__contentqtresultqtunused2 x)
                  (and
                    (= o11 (bvlshr x o10))
                    (and
                      (= lsr_bvqtresultqtunused o11)
                      (and
                        (= xqtunused1 (t__refqtmk x1))
                        (and
                          (= x1 o11)
                          (and
                            (= t__contentqtresultqtunused3 x1)
                            (and
                              (= o12 (bvand x1 #x000000FF))
                              (and
                                (= bw_andqtresultqtunused1 o12)
                                (and
                                  (= toBigqtresultqtunused2 ((_ zero_extend 24) #xFF))
                                  (and
                                    (= toBigqtresultqtunused3 ((_ zero_extend 24) #x00))
                                    (and
                                      (= range_check_qtresultqtunused1 
                                      o12)
                                      (and
                                        (= o13 ((_ extract 7 0) o12))
                                        (and
                                          (= toSmallqtresultqtunused1 
                                          o13)
                                          (and
                                            (= (to_rep o14) o13)
                                            (and
                                              (= of_repqtresultqtunused1 
                                              o14)
                                              (and
                                                (= o15 (byte__init_wrapperqtmk
                                                         o14
                                                         true))
                                                (and
                                                  (= to_wrapperqtresultqtunused1 
                                                  o15)
                                                  (and
                                                    (= int__contentqtresultqtunused2 
                                                    i)
                                                    (and
                                                      (= map__contentqtresultqtunused2 
                                                      output1)
                                                      (and
                                                        (= o16 (set
                                                                 output1
                                                                 i
                                                                 o15))
                                                        (and
                                                          (= setqtresultqtunused1 
                                                          o16)
                                                          (and
                                                            (= outputqtunused3 
                                                            (map__refqtmk
                                                              output3))
                                                            (and
                                                              (= output3 
                                                              o16)
                                                              (and
                                                                (= int__contentqtresultqtunused3 
                                                                i)
                                                                (and
                                                                  (= 
                                                                  map__contentqtresultqtunused3 
                                                                  output3)
                                                                  (and
                                                                    (=>
                                                                    (<= 
                                                                    i 3)
                                                                    (and
                                                                    (and
                                                                    (<= 0 
                                                                    i)
                                                                    (<= 
                                                                    i 3))
                                                                    (and
                                                                    (<= 0 3)
                                                                    (<= 3 3))))
                                                                    (and
                                                                    (= 
                                                                    o17 
                                                                    (slice
                                                                    output3
                                                                    i
                                                                    3))
                                                                    (and
                                                                    (= 
                                                                    sliceqtresultqtunused 
                                                                    o17)
                                                                    (and
                                                                    (= 
                                                                    temp___703 
                                                                    (of_array
                                                                    o17
                                                                    i
                                                                    3))
                                                                    (and
                                                                    (= 
                                                                    of_arrayqtresultqtunused 
                                                                    temp___703)
                                                                    (and
                                                                    (= 
                                                                    usfqtunused 
                                                                    (ite 
                                                                    (forall 
                                                                    ((temp___704 Int))
                                                                    (=>
                                                                    (and
                                                                    (<= 
                                                                    i temp___704)
                                                                    (<= temp___704 3))
                                                                    (= 
                                                                    (us_attr__init
                                                                    (get
                                                                    o17
                                                                    temp___704)) true)))
                                                                    true
                                                                    false))
                                                                    (and
                                                                    (= 
                                                                    anyqtresultqtunused 
                                                                    (ite 
                                                                    (forall 
                                                                    ((temp___704 Int))
                                                                    (=>
                                                                    (and
                                                                    (<= 
                                                                    i temp___704)
                                                                    (<= temp___704 3))
                                                                    (= 
                                                                    (us_attr__init
                                                                    (get
                                                                    o17
                                                                    temp___704)) true)))
                                                                    true
                                                                    false))
                                                                    (and
                                                                    (= 
                                                                    iqtunused1 
                                                                    (int__refqtmk
                                                                    i1))
                                                                    (and
                                                                    (forall 
                                                                    ((temp___711 Int))
                                                                    (=>
                                                                    (and
                                                                    (<= 
                                                                    i1 temp___711)
                                                                    (<= temp___711 3))
                                                                    (= 
                                                                    (us_attr__init
                                                                    (get
                                                                    (slice
                                                                    output2
                                                                    i1
                                                                    3)
                                                                    temp___711)) true)))
                                                                    (and
                                                                    (= (and 
                                                                    (ite 
                                                                    (and
                                                                    (has_bounds
                                                                    output2
                                                                    0
                                                                    3)
                                                                    (forall 
                                                                    ((temp___697 Int))
                                                                    (=>
                                                                    (and
                                                                    (<= 0 temp___697)
                                                                    (<= temp___697 3))
                                                                    (=>
                                                                    (or
                                                                    (< 2 temp___697)
                                                                    (or
                                                                    (< temp___697 0)
                                                                    (< temp___697 
                                                                    i1)))
                                                                    (= 
                                                                    (get
                                                                    output2
                                                                    temp___697) 
                                                                    (get
                                                                    output1
                                                                    temp___697))))))
                                                                    true
                                                                    false) 
                                                                    (ite 
                                                                    (and
                                                                    (<= 0 
                                                                    i1)
                                                                    (<= 
                                                                    i1 2))
                                                                    true
                                                                    false)) true)
                                                                    (and
                                                                    (= 
                                                                    int__contentqtresultqtunused4 
                                                                    i1)
                                                                    (and
                                                                    (= 
                                                                    infix_eqqtresultqtunused 
                                                                    (ite (= 
                                                                    i1 0)
                                                                    true
                                                                    false))
                                                                    (= 
                                                                    i1 0))))))))))))))))))))))))))))))))))))))))))))
    (= output2 output1)))

;; Goal "def'vc"
;; File "sparknacl-utils.ads", line 20, characters 0-0
(assert
  (not (us_is_initialized output2)))

(check-sat)
